x = 20;
y = 14;
c = 87;
n = 73;

p = [89  84  12  60  69  36  67  23  69  91  80  80  30  21  31  26  19  74  42  98  92  61  50  65  12  87  59  60  81  17  38  49  23  93  91  50  77  96  37  69  65  24  95  38  15  81  80  64  72  94  25  62  64  52  85  51  60  71  74  10  51  27  29  60  91  85  83  60  42  20  39  99  17];
w = [6  3  1  3  7  10  5  8  8  4  7  10  7  8  9  10  3  7  3  1  5  4  5  8  8  10  7  6  10  1  3  4  2  5  7  4  9  3  9  4  1  8  2  10  4  7  1  10  2  7  5  9  7  5  7  4  5  4  2  7  6  3  1  4  7  7  8  8  10  2  2  9  10];
s = [3  3  13  14  6  5  13  12  8  11  1  6  9  7  6  14  5  2  14  6  6  1  11  10  12  3  9  8  11  3  13  3  2  11  14  6  14  5  2  7  1  14  4  10  4  14  5  12  2  14  7  6  3  7  7  3  7  8  5  12  13  14  10  11  7  1  9  14  5  8  14  12  7];
